c WMC file for PBN ISCAS/c1908_distill_ISCAS/c1908_miter written by probABC
p cnf 758 2166
37 24 31 0
-37 -24 0
-37 -31 0
38 -18 37 0
-38 18 0
-38 -37 0
39 -34 38 0
-39 34 0
-39 -38 0
40 34 -38 0
-40 -34 0
-40 38 0
41 39 40 0
-41 -39 0
-41 -40 0
42 -15 16 0
-42 15 0
-42 -16 0
43 15 -16 0
-43 -15 0
-43 16 0
44 42 43 0
-44 -42 0
-44 -43 0
45 -10 44 0
-45 10 0
-45 -44 0
46 10 -44 0
-46 -10 0
-46 44 0
47 45 46 0
-47 -45 0
-47 -46 0
48 -9 47 0
-48 9 0
-48 -47 0
49 9 -47 0
-49 -9 0
-49 47 0
50 48 49 0
-50 -48 0
-50 -49 0
51 -21 33 0
-51 21 0
-51 -33 0
52 50 51 0
-52 -50 0
-52 -51 0
53 -50 -51 0
-53 50 0
-53 51 0
54 52 53 0
-54 -52 0
-54 -53 0
55 -2 3 0
-55 2 0
-55 -3 0
56 2 -3 0
-56 -2 0
-56 3 0
57 55 56 0
-57 -55 0
-57 -56 0
58 -1 57 0
-58 1 0
-58 -57 0
59 1 -57 0
-59 -1 0
-59 57 0
60 58 59 0
-60 -58 0
-60 -59 0
61 -6 7 0
-61 6 0
-61 -7 0
62 6 -7 0
-62 -6 0
-62 7 0
63 61 62 0
-63 -61 0
-63 -62 0
64 -5 63 0
-64 5 0
-64 -63 0
65 5 -63 0
-65 -5 0
-65 63 0
66 64 65 0
-66 -64 0
-66 -65 0
67 -60 -66 0
-67 60 0
-67 66 0
68 60 66 0
-68 -60 0
-68 -66 0
69 67 68 0
-69 -67 0
-69 -68 0
70 -4 8 0
-70 4 0
-70 -8 0
71 4 -8 0
-71 -4 0
-71 8 0
72 70 71 0
-72 -70 0
-72 -71 0
73 69 72 0
-73 -69 0
-73 -72 0
74 -69 -72 0
-74 69 0
-74 72 0
75 73 74 0
-75 -73 0
-75 -74 0
76 -54 -75 0
-76 54 0
-76 75 0
77 54 75 0
-77 -54 0
-77 -75 0
78 76 77 0
-78 -76 0
-78 -77 0
79 31 -78 0
-79 -31 0
-79 78 0
80 -17 37 0
-80 17 0
-80 -37 0
81 79 -80 0
-81 -79 0
-81 80 0
82 -79 80 0
-82 79 0
-82 -80 0
83 81 82 0
-83 -81 0
-83 -82 0
84 -41 83 0
-84 41 0
-84 -83 0
85 -23 31 0
-85 23 0
-85 -31 0
86 -20 85 0
-86 20 0
-86 -85 0
87 4 -14 0
-87 -4 0
-87 14 0
88 -4 14 0
-88 4 0
-88 -14 0
89 87 88 0
-89 -87 0
-89 -88 0
90 -22 33 0
-90 22 0
-90 -33 0
91 89 90 0
-91 -89 0
-91 -90 0
92 -89 -90 0
-92 89 0
-92 90 0
93 91 92 0
-93 -91 0
-93 -92 0
94 47 60 0
-94 -47 0
-94 -60 0
95 -47 -60 0
-95 47 0
-95 60 0
96 94 95 0
-96 -94 0
-96 -95 0
97 -12 13 0
-97 12 0
-97 -13 0
98 12 -13 0
-98 -12 0
-98 13 0
99 97 98 0
-99 -97 0
-99 -98 0
100 -11 99 0
-100 11 0
-100 -99 0
101 11 -99 0
-101 -11 0
-101 99 0
102 100 101 0
-102 -100 0
-102 -101 0
103 96 102 0
-103 -96 0
-103 -102 0
104 -96 -102 0
-104 96 0
-104 102 0
105 103 104 0
-105 -103 0
-105 -104 0
106 93 105 0
-106 -93 0
-106 -105 0
107 -93 -105 0
-107 93 0
-107 105 0
108 106 107 0
-108 -106 0
-108 -107 0
109 31 108 0
-109 -31 0
-109 -108 0
110 -25 109 0
-110 25 0
-110 -109 0
111 25 -109 0
-111 -25 0
-111 109 0
112 110 111 0
-112 -110 0
-112 -111 0
113 86 112 0
-113 -86 0
-113 -112 0
114 9 -14 0
-114 -9 0
-114 14 0
115 -9 14 0
-115 9 0
-115 -14 0
116 114 115 0
-116 -114 0
-116 -115 0
117 -16 116 0
-117 16 0
-117 -116 0
118 16 -116 0
-118 -16 0
-118 116 0
119 117 118 0
-119 -117 0
-119 -118 0
120 -7 10 0
-120 7 0
-120 -10 0
121 7 -10 0
-121 -7 0
-121 10 0
122 120 121 0
-122 -120 0
-122 -121 0
123 -4 122 0
-123 4 0
-123 -122 0
124 4 -122 0
-124 -4 0
-124 122 0
125 123 124 0
-125 -123 0
-125 -124 0
126 -119 125 0
-126 119 0
-126 -125 0
127 119 -125 0
-127 -119 0
-127 125 0
128 126 127 0
-128 -126 0
-128 -127 0
129 -20 -23 0
-129 20 0
-129 23 0
130 33 -129 0
-130 -33 0
-130 129 0
131 -13 -130 0
-131 13 0
-131 130 0
132 13 130 0
-132 -13 0
-132 -130 0
133 131 132 0
-133 -131 0
-133 -132 0
134 128 133 0
-134 -128 0
-134 -133 0
135 -128 -133 0
-135 128 0
-135 133 0
136 134 135 0
-136 -134 0
-136 -135 0
137 31 136 0
-137 -31 0
-137 -136 0
138 -19 85 0
-138 19 0
-138 -85 0
139 137 -138 0
-139 -137 0
-139 138 0
140 -137 138 0
-140 137 0
-140 -138 0
141 139 140 0
-141 -139 0
-141 -140 0
142 -17 24 0
-142 17 0
-142 -24 0
143 33 -142 0
-143 -33 0
-143 142 0
144 1 143 0
-144 -1 0
-144 -143 0
145 -1 -143 0
-145 1 0
-145 143 0
146 144 145 0
-146 -144 0
-146 -145 0
147 -47 -102 0
-147 47 0
-147 102 0
148 47 102 0
-148 -47 0
-148 -102 0
149 147 148 0
-149 -147 0
-149 -148 0
150 66 149 0
-150 -66 0
-150 -149 0
151 -66 -149 0
-151 66 0
-151 149 0
152 150 151 0
-152 -150 0
-152 -151 0
153 -146 152 0
-153 146 0
-153 -152 0
154 146 -152 0
-154 -146 0
-154 152 0
155 153 154 0
-155 -153 0
-155 -154 0
156 31 155 0
-156 -31 0
-156 -155 0
157 -26 156 0
-157 26 0
-157 -156 0
158 26 -156 0
-158 -26 0
-158 156 0
159 157 158 0
-159 -157 0
-159 -158 0
160 -141 159 0
-160 141 0
-160 -159 0
161 -6 8 0
-161 6 0
-161 -8 0
162 6 -8 0
-162 -6 0
-162 8 0
163 161 162 0
-163 -161 0
-163 -162 0
164 -3 163 0
-164 3 0
-164 -163 0
165 3 -163 0
-165 -3 0
-165 163 0
166 164 165 0
-166 -164 0
-166 -165 0
167 -10 15 0
-167 10 0
-167 -15 0
168 10 -15 0
-168 -10 0
-168 15 0
169 167 168 0
-169 -167 0
-169 -168 0
170 -12 169 0
-170 12 0
-170 -169 0
171 12 -169 0
-171 -12 0
-171 169 0
172 170 171 0
-172 -170 0
-172 -171 0
173 166 -172 0
-173 -166 0
-173 172 0
174 -166 172 0
-174 166 0
-174 -172 0
175 173 174 0
-175 -173 0
-175 -174 0
176 -19 -23 0
-176 19 0
-176 23 0
177 33 -176 0
-177 -33 0
-177 176 0
178 175 177 0
-178 -175 0
-178 -177 0
179 -175 -177 0
-179 175 0
-179 177 0
180 178 179 0
-180 -178 0
-180 -179 0
181 31 180 0
-181 -31 0
-181 -180 0
182 -28 181 0
-182 28 0
-182 -181 0
183 28 -181 0
-183 -28 0
-183 181 0
184 182 183 0
-184 -182 0
-184 -183 0
185 -18 24 0
-185 18 0
-185 -24 0
186 33 -185 0
-186 -33 0
-186 185 0
187 15 186 0
-187 -15 0
-187 -186 0
188 -15 -186 0
-188 15 0
-188 186 0
189 187 188 0
-189 -187 0
-189 -188 0
190 -11 189 0
-190 11 0
-190 -189 0
191 11 -189 0
-191 -11 0
-191 189 0
192 190 191 0
-192 -190 0
-192 -191 0
193 119 -192 0
-193 -119 0
-193 192 0
194 -119 192 0
-194 119 0
-194 -192 0
195 193 194 0
-195 -193 0
-195 -194 0
196 -5 8 0
-196 5 0
-196 -8 0
197 5 -8 0
-197 -5 0
-197 8 0
198 196 197 0
-198 -196 0
-198 -197 0
199 -2 198 0
-199 2 0
-199 -198 0
200 2 -198 0
-200 -2 0
-200 198 0
201 199 200 0
-201 -199 0
-201 -200 0
202 195 -201 0
-202 -195 0
-202 201 0
203 -195 201 0
-203 195 0
-203 -201 0
204 202 203 0
-204 -202 0
-204 -203 0
205 31 204 0
-205 -31 0
-205 -204 0
206 -27 205 0
-206 27 0
-206 -205 0
207 27 -205 0
-207 -27 0
-207 205 0
208 206 207 0
-208 -206 0
-208 -207 0
209 -184 -208 0
-209 184 0
-209 208 0
210 -23 -24 0
-210 23 0
-210 24 0
211 29 -31 0
-211 -29 0
-211 31 0
212 -33 -211 0
-212 33 0
-212 211 0
213 210 -212 0
-213 -210 0
-213 212 0
214 -32 33 0
-214 32 0
-214 -33 0
215 210 -214 0
-215 -210 0
-215 214 0
216 213 215 0
-216 -213 0
-216 -215 0
217 -84 -113 0
-217 84 0
-217 113 0
218 -160 -217 0
-218 160 0
-218 217 0
219 -209 -218 0
-219 209 0
-219 218 0
220 216 -219 0
-220 -216 0
-220 219 0
221 1 -220 0
-221 -1 0
-221 220 0
222 -1 220 0
-222 1 0
-222 -220 0
223 221 222 0
-223 -221 0
-223 -222 0
224 -141 -159 0
-224 141 0
-224 159 0
225 -184 208 0
-225 184 0
-225 -208 0
226 -217 -224 0
-226 217 0
-226 224 0
227 -225 -226 0
-227 225 0
-227 226 0
228 216 -227 0
-228 -216 0
-228 227 0
229 2 -228 0
-229 -2 0
-229 228 0
230 -2 228 0
-230 2 0
-230 -228 0
231 229 230 0
-231 -229 0
-231 -230 0
232 184 -208 0
-232 -184 0
-232 208 0
233 -226 -232 0
-233 226 0
-233 232 0
234 216 -233 0
-234 -216 0
-234 233 0
235 3 -234 0
-235 -3 0
-235 234 0
236 -3 234 0
-236 3 0
-236 -234 0
237 235 236 0
-237 -235 0
-237 -236 0
238 141 -159 0
-238 -141 0
-238 159 0
239 -217 -238 0
-239 217 0
-239 238 0
240 -209 -239 0
-240 209 0
-240 239 0
241 216 -240 0
-241 -216 0
-241 240 0
242 4 -241 0
-242 -4 0
-242 241 0
243 -4 241 0
-243 4 0
-243 -241 0
244 242 243 0
-244 -242 0
-244 -243 0
245 141 159 0
-245 -141 0
-245 -159 0
246 30 -31 0
-246 -30 0
-246 31 0
247 -33 -246 0
-247 33 0
-247 246 0
248 210 -247 0
-248 -210 0
-248 247 0
249 215 248 0
-249 -215 0
-249 -248 0
250 -217 -245 0
-250 217 0
-250 245 0
251 -232 -250 0
-251 232 0
-251 250 0
252 249 -251 0
-252 -249 0
-252 251 0
253 10 -252 0
-253 -10 0
-253 252 0
254 -10 252 0
-254 10 0
-254 -252 0
255 253 254 0
-255 -253 0
-255 -254 0
256 184 208 0
-256 -184 0
-256 -208 0
257 -218 -256 0
-257 218 0
-257 256 0
258 249 -257 0
-258 -249 0
-258 257 0
259 15 -258 0
-259 -15 0
-259 258 0
260 -15 258 0
-260 15 0
-260 -258 0
261 259 260 0
-261 -259 0
-261 -260 0
262 -225 -250 0
-262 225 0
-262 250 0
263 249 -262 0
-263 -249 0
-263 262 0
264 16 -263 0
-264 -16 0
-264 263 0
265 -16 263 0
-265 16 0
-265 -263 0
266 264 265 0
-266 -264 0
-266 -265 0
267 86 -112 0
-267 -86 0
-267 112 0
268 -84 -267 0
-268 84 0
-268 267 0
269 -160 -268 0
-269 160 0
-269 268 0
270 -225 -269 0
-270 225 0
-270 269 0
271 216 -270 0
-271 -216 0
-271 270 0
272 5 -271 0
-272 -5 0
-272 271 0
273 -5 271 0
-273 5 0
-273 -271 0
274 272 273 0
-274 -272 0
-274 -273 0
275 -232 -269 0
-275 232 0
-275 269 0
276 216 -275 0
-276 -216 0
-276 275 0
277 6 -276 0
-277 -6 0
-277 276 0
278 -6 276 0
-278 6 0
-278 -276 0
279 277 278 0
-279 -277 0
-279 -278 0
280 -245 -268 0
-280 245 0
-280 268 0
281 -209 -280 0
-281 209 0
-281 280 0
282 216 -281 0
-282 -216 0
-282 281 0
283 7 -282 0
-283 -7 0
-283 282 0
284 -7 282 0
-284 7 0
-284 -282 0
285 283 284 0
-285 -283 0
-285 -284 0
286 -224 -268 0
-286 224 0
-286 268 0
287 -256 -286 0
-287 256 0
-287 286 0
288 216 -287 0
-288 -216 0
-288 287 0
289 8 -288 0
-289 -8 0
-289 288 0
290 -8 288 0
-290 8 0
-290 -288 0
291 289 290 0
-291 -289 0
-291 -290 0
292 -238 -268 0
-292 238 0
-292 268 0
293 -225 -292 0
-293 225 0
-293 292 0
294 249 -293 0
-294 -249 0
-294 293 0
295 9 -294 0
-295 -9 0
-295 294 0
296 -9 294 0
-296 9 0
-296 -294 0
297 295 296 0
-297 -295 0
-297 -296 0
298 -41 -83 0
-298 41 0
-298 83 0
299 -113 -298 0
-299 113 0
-299 298 0
300 -160 -299 0
-300 160 0
-300 299 0
301 -225 -300 0
-301 225 0
-301 300 0
302 249 -301 0
-302 -249 0
-302 301 0
303 11 -302 0
-303 -11 0
-303 302 0
304 -11 302 0
-304 11 0
-304 -302 0
305 303 304 0
-305 -303 0
-305 -304 0
306 -232 -300 0
-306 232 0
-306 300 0
307 249 -306 0
-307 -249 0
-307 306 0
308 12 -307 0
-308 -12 0
-308 307 0
309 -12 307 0
-309 12 0
-309 -307 0
310 308 309 0
-310 -308 0
-310 -309 0
311 -245 -299 0
-311 245 0
-311 299 0
312 -209 -311 0
-312 209 0
-312 311 0
313 249 -312 0
-313 -249 0
-313 312 0
314 13 -313 0
-314 -13 0
-314 313 0
315 -13 313 0
-315 13 0
-315 -313 0
316 314 315 0
-316 -314 0
-316 -315 0
317 -238 -299 0
-317 238 0
-317 299 0
318 -225 -317 0
-318 225 0
-318 317 0
319 249 -318 0
-319 -249 0
-319 318 0
320 14 -319 0
-320 -14 0
-320 319 0
321 -14 319 0
-321 14 0
-321 -319 0
322 320 321 0
-322 -320 0
-322 -321 0
323 -141 -184 0
-323 141 0
-323 184 0
324 -208 -323 0
-324 208 0
-324 323 0
325 -159 -324 0
-325 159 0
-325 324 0
326 -41 -325 0
-326 41 0
-326 325 0
327 -112 -326 0
-327 112 0
-327 326 0
328 -83 -327 0
-328 83 0
-328 327 0
329 86 -328 0
-329 -86 0
-329 328 0
330 33 329 0
-330 -33 0
-330 -329 0
331 32 -330 0
-331 -32 0
-331 330 0
332 32 -331 0
-332 -32 0
-332 331 0
333 220 228 0
-333 -220 0
-333 -228 0
334 234 -333 0
-334 -234 0
-334 333 0
335 241 -334 0
-335 -241 0
-335 334 0
336 271 -335 0
-336 -271 0
-336 335 0
337 276 -336 0
-337 -276 0
-337 336 0
338 282 -337 0
-338 -282 0
-338 337 0
339 288 -338 0
-339 -288 0
-339 338 0
340 252 294 0
-340 -252 0
-340 -294 0
341 302 -340 0
-341 -302 0
-341 340 0
342 307 -341 0
-342 -307 0
-342 341 0
343 313 -342 0
-343 -313 0
-343 342 0
344 319 -343 0
-344 -319 0
-344 343 0
345 258 -344 0
-345 -258 0
-345 344 0
346 263 -345 0
-346 -263 0
-346 345 0
347 -209 -286 0
-347 209 0
-347 286 0
348 -215 -347 0
-348 215 0
-348 347 0
349 -224 -299 0
-349 224 0
-349 299 0
350 -209 -349 0
-350 209 0
-350 349 0
351 -215 -350 0
-351 215 0
-351 350 0
352 -267 -298 0
-352 267 0
-352 298 0
353 -160 -352 0
-353 160 0
-353 352 0
354 -209 -353 0
-354 209 0
-354 353 0
355 -35 354 0
-355 35 0
-355 -354 0
356 35 -354 0
-356 -35 0
-356 354 0
357 355 356 0
-357 -355 0
-357 -356 0
358 -215 357 0
-358 215 0
-358 -357 0
359 -224 -352 0
-359 224 0
-359 352 0
360 -225 -359 0
-360 225 0
-360 359 0
361 -215 -360 0
-361 215 0
-361 360 0
362 -232 -359 0
-362 232 0
-362 359 0
363 -215 -362 0
-363 215 0
-363 362 0
364 -238 -352 0
-364 238 0
-364 352 0
365 -209 -364 0
-365 209 0
-365 364 0
366 -215 -365 0
-366 215 0
-366 365 0
367 -86 -112 0
-367 86 0
-367 112 0
368 -298 -367 0
-368 298 0
-368 367 0
369 -224 -368 0
-369 224 0
-369 368 0
370 -209 -369 0
-370 209 0
-370 369 0
371 -215 -370 0
-371 215 0
-371 370 0
372 41 -83 0
-372 -41 0
-372 83 0
373 -267 -372 0
-373 267 0
-373 372 0
374 -224 -373 0
-374 224 0
-374 373 0
375 -209 -374 0
-375 209 0
-375 374 0
376 -215 -375 0
-376 215 0
-376 375 0
377 348 351 0
-377 -348 0
-377 -351 0
378 358 -377 0
-378 -358 0
-378 377 0
379 361 -378 0
-379 -361 0
-379 378 0
380 363 -379 0
-380 -363 0
-380 379 0
381 366 -380 0
-381 -366 0
-381 380 0
382 371 -381 0
-382 -371 0
-382 381 0
383 376 -382 0
-383 -376 0
-383 382 0
384 -339 -346 0
-384 339 0
-384 346 0
385 -383 -384 0
-385 383 0
-385 384 0
386 -32 -330 0
-386 32 0
-386 330 0
387 -385 -386 0
-387 385 0
-387 386 0
388 332 387 0
-388 -332 0
-388 -387 0
389 54 -75 0
-389 -54 0
-389 75 0
390 -54 75 0
-390 54 0
-390 -75 0
391 389 390 0
-391 -389 0
-391 -390 0
392 -31 -80 0
-392 31 0
-392 80 0
393 384 -392 0
-393 -384 0
-393 392 0
394 391 393 0
-394 -391 0
-394 -393 0
395 -391 -393 0
-395 391 0
-395 393 0
396 394 395 0
-396 -394 0
-396 -395 0
397 32 -33 0
-397 -32 0
-397 33 0
398 396 397 0
-398 -396 0
-398 -397 0
399 -25 -31 0
-399 25 0
-399 31 0
400 384 -399 0
-400 -384 0
-400 399 0
401 108 400 0
-401 -108 0
-401 -400 0
402 -108 -400 0
-402 108 0
-402 400 0
403 401 402 0
-403 -401 0
-403 -402 0
404 397 403 0
-404 -397 0
-404 -403 0
405 -27 -31 0
-405 27 0
-405 31 0
406 384 -405 0
-406 -384 0
-406 405 0
407 204 406 0
-407 -204 0
-407 -406 0
408 -204 -406 0
-408 204 0
-408 406 0
409 407 408 0
-409 -407 0
-409 -408 0
410 397 409 0
-410 -397 0
-410 -409 0
411 -28 -31 0
-411 28 0
-411 31 0
412 384 -411 0
-412 -384 0
-412 411 0
413 180 412 0
-413 -180 0
-413 -412 0
414 -180 -412 0
-414 180 0
-414 412 0
415 413 414 0
-415 -413 0
-415 -414 0
416 397 415 0
-416 -397 0
-416 -415 0
417 -31 -138 0
-417 31 0
-417 138 0
418 384 -417 0
-418 -384 0
-418 417 0
419 136 418 0
-419 -136 0
-419 -418 0
420 -136 -418 0
-420 136 0
-420 418 0
421 419 420 0
-421 -419 0
-421 -420 0
422 397 421 0
-422 -397 0
-422 -421 0
423 33 339 0
-423 -33 0
-423 -339 0
424 29 -33 0
-424 -29 0
-424 33 0
425 -75 424 0
-425 75 0
-425 -424 0
426 -423 425 0
-426 423 0
-426 -425 0
427 423 -425 0
-427 -423 0
-427 425 0
428 426 427 0
-428 -426 0
-428 -427 0
429 -21 -29 0
-429 21 0
-429 29 0
430 -33 429 0
-430 33 0
-430 -429 0
431 428 430 0
-431 -428 0
-431 -430 0
432 -428 -430 0
-432 428 0
-432 430 0
433 431 432 0
-433 -431 0
-433 -432 0
434 33 346 0
-434 -33 0
-434 -346 0
435 30 -33 0
-435 -30 0
-435 33 0
436 116 149 0
-436 -116 0
-436 -149 0
437 -116 -149 0
-437 116 0
-437 149 0
438 436 437 0
-438 -436 0
-438 -437 0
439 435 -438 0
-439 -435 0
-439 438 0
440 -434 439 0
-440 434 0
-440 -439 0
441 434 -439 0
-441 -434 0
-441 439 0
442 440 441 0
-442 -440 0
-442 -441 0
443 -22 -30 0
-443 22 0
-443 30 0
444 -33 443 0
-444 33 0
-444 -443 0
445 442 444 0
-445 -442 0
-445 -444 0
446 -442 -444 0
-446 442 0
-446 444 0
447 445 446 0
-447 -445 0
-447 -446 0
448 -26 -31 0
-448 26 0
-448 31 0
449 384 -448 0
-449 -384 0
-449 448 0
450 152 449 0
-450 -152 0
-450 -449 0
451 -152 -449 0
-451 152 0
-451 449 0
452 450 451 0
-452 -450 0
-452 -451 0
453 -146 452 0
-453 146 0
-453 -452 0
454 146 -452 0
-454 -146 0
-454 452 0
455 453 454 0
-455 -453 0
-455 -454 0
456 397 455 0
-456 -397 0
-456 -455 0
457 38 83 0
-457 -38 0
-457 -83 0
458 -113 -457 0
-458 113 0
-458 457 0
459 -160 -458 0
-459 160 0
-459 458 0
460 -209 -459 0
-460 209 0
-460 459 0
461 216 -460 0
-461 -216 0
-461 460 0
462 1 -461 0
-462 -1 0
-462 461 0
463 -1 461 0
-463 1 0
-463 -461 0
464 462 463 0
-464 -462 0
-464 -463 0
465 -224 -458 0
-465 224 0
-465 458 0
466 -225 -465 0
-466 225 0
-466 465 0
467 216 -466 0
-467 -216 0
-467 466 0
468 2 -467 0
-468 -2 0
-468 467 0
469 -2 467 0
-469 2 0
-469 -467 0
470 468 469 0
-470 -468 0
-470 -469 0
471 -232 -465 0
-471 232 0
-471 465 0
472 216 -471 0
-472 -216 0
-472 471 0
473 3 -472 0
-473 -3 0
-473 472 0
474 -3 472 0
-474 3 0
-474 -472 0
475 473 474 0
-475 -473 0
-475 -474 0
476 -238 -458 0
-476 238 0
-476 458 0
477 -209 -476 0
-477 209 0
-477 476 0
478 216 -477 0
-478 -216 0
-478 477 0
479 4 -478 0
-479 -4 0
-479 478 0
480 -4 478 0
-480 4 0
-480 -478 0
481 479 480 0
-481 -479 0
-481 -480 0
482 -245 -458 0
-482 245 0
-482 458 0
483 -232 -482 0
-483 232 0
-483 482 0
484 249 -483 0
-484 -249 0
-484 483 0
485 10 -484 0
-485 -10 0
-485 484 0
486 -10 484 0
-486 10 0
-486 -484 0
487 485 486 0
-487 -485 0
-487 -486 0
488 -256 -459 0
-488 256 0
-488 459 0
489 249 -488 0
-489 -249 0
-489 488 0
490 15 -489 0
-490 -15 0
-490 489 0
491 -15 489 0
-491 15 0
-491 -489 0
492 490 491 0
-492 -490 0
-492 -491 0
493 -225 -482 0
-493 225 0
-493 482 0
494 249 -493 0
-494 -249 0
-494 493 0
495 16 -494 0
-495 -16 0
-495 494 0
496 -16 494 0
-496 16 0
-496 -494 0
497 495 496 0
-497 -495 0
-497 -496 0
498 -267 -457 0
-498 267 0
-498 457 0
499 -160 -498 0
-499 160 0
-499 498 0
500 -225 -499 0
-500 225 0
-500 499 0
501 216 -500 0
-501 -216 0
-501 500 0
502 5 -501 0
-502 -5 0
-502 501 0
503 -5 501 0
-503 5 0
-503 -501 0
504 502 503 0
-504 -502 0
-504 -503 0
505 -232 -499 0
-505 232 0
-505 499 0
506 216 -505 0
-506 -216 0
-506 505 0
507 6 -506 0
-507 -6 0
-507 506 0
508 -6 506 0
-508 6 0
-508 -506 0
509 507 508 0
-509 -507 0
-509 -508 0
510 -245 -498 0
-510 245 0
-510 498 0
511 -209 -510 0
-511 209 0
-511 510 0
512 216 -511 0
-512 -216 0
-512 511 0
513 7 -512 0
-513 -7 0
-513 512 0
514 -7 512 0
-514 7 0
-514 -512 0
515 513 514 0
-515 -513 0
-515 -514 0
516 -224 -498 0
-516 224 0
-516 498 0
517 -256 -516 0
-517 256 0
-517 516 0
518 216 -517 0
-518 -216 0
-518 517 0
519 8 -518 0
-519 -8 0
-519 518 0
520 -8 518 0
-520 8 0
-520 -518 0
521 519 520 0
-521 -519 0
-521 -520 0
522 -238 -498 0
-522 238 0
-522 498 0
523 -225 -522 0
-523 225 0
-523 522 0
524 249 -523 0
-524 -249 0
-524 523 0
525 9 -524 0
-525 -9 0
-525 524 0
526 -9 524 0
-526 9 0
-526 -524 0
527 525 526 0
-527 -525 0
-527 -526 0
528 38 -83 0
-528 -38 0
-528 83 0
529 -113 -528 0
-529 113 0
-529 528 0
530 -160 -529 0
-530 160 0
-530 529 0
531 -225 -530 0
-531 225 0
-531 530 0
532 249 -531 0
-532 -249 0
-532 531 0
533 11 -532 0
-533 -11 0
-533 532 0
534 -11 532 0
-534 11 0
-534 -532 0
535 533 534 0
-535 -533 0
-535 -534 0
536 -232 -530 0
-536 232 0
-536 530 0
537 249 -536 0
-537 -249 0
-537 536 0
538 12 -537 0
-538 -12 0
-538 537 0
539 -12 537 0
-539 12 0
-539 -537 0
540 538 539 0
-540 -538 0
-540 -539 0
541 -245 -529 0
-541 245 0
-541 529 0
542 -209 -541 0
-542 209 0
-542 541 0
543 249 -542 0
-543 -249 0
-543 542 0
544 13 -543 0
-544 -13 0
-544 543 0
545 -13 543 0
-545 13 0
-545 -543 0
546 544 545 0
-546 -544 0
-546 -545 0
547 -238 -529 0
-547 238 0
-547 529 0
548 -225 -547 0
-548 225 0
-548 547 0
549 249 -548 0
-549 -249 0
-549 548 0
550 14 -549 0
-550 -14 0
-550 549 0
551 -14 549 0
-551 14 0
-551 -549 0
552 550 551 0
-552 -550 0
-552 -551 0
553 38 -325 0
-553 -38 0
-553 325 0
554 -112 -553 0
-554 112 0
-554 553 0
555 -83 -554 0
-555 83 0
-555 554 0
556 86 -555 0
-556 -86 0
-556 555 0
557 33 556 0
-557 -33 0
-557 -556 0
558 32 -557 0
-558 -32 0
-558 557 0
559 32 -558 0
-559 -32 0
-559 558 0
560 461 467 0
-560 -461 0
-560 -467 0
561 472 -560 0
-561 -472 0
-561 560 0
562 478 -561 0
-562 -478 0
-562 561 0
563 501 -562 0
-563 -501 0
-563 562 0
564 506 -563 0
-564 -506 0
-564 563 0
565 512 -564 0
-565 -512 0
-565 564 0
566 518 -565 0
-566 -518 0
-566 565 0
567 484 524 0
-567 -484 0
-567 -524 0
568 532 -567 0
-568 -532 0
-568 567 0
569 537 -568 0
-569 -537 0
-569 568 0
570 543 -569 0
-570 -543 0
-570 569 0
571 549 -570 0
-571 -549 0
-571 570 0
572 489 -571 0
-572 -489 0
-572 571 0
573 494 -572 0
-573 -494 0
-573 572 0
574 -209 -516 0
-574 209 0
-574 516 0
575 -215 -574 0
-575 215 0
-575 574 0
576 -224 -529 0
-576 224 0
-576 529 0
577 -209 -576 0
-577 209 0
-577 576 0
578 -215 -577 0
-578 215 0
-578 577 0
579 -267 -528 0
-579 267 0
-579 528 0
580 -160 -579 0
-580 160 0
-580 579 0
581 -209 -580 0
-581 209 0
-581 580 0
582 -215 -581 0
-582 215 0
-582 581 0
583 -224 -579 0
-583 224 0
-583 579 0
584 -225 -583 0
-584 225 0
-584 583 0
585 -215 -584 0
-585 215 0
-585 584 0
586 -232 -583 0
-586 232 0
-586 583 0
587 -215 -586 0
-587 215 0
-587 586 0
588 -238 -579 0
-588 238 0
-588 579 0
589 -209 -588 0
-589 209 0
-589 588 0
590 -215 -589 0
-590 215 0
-590 589 0
591 -367 -528 0
-591 367 0
-591 528 0
592 -224 -591 0
-592 224 0
-592 591 0
593 -209 -592 0
-593 209 0
-593 592 0
594 -215 -593 0
-594 215 0
-594 593 0
595 -38 -83 0
-595 38 0
-595 83 0
596 -267 -595 0
-596 267 0
-596 595 0
597 -224 -596 0
-597 224 0
-597 596 0
598 -209 -597 0
-598 209 0
-598 597 0
599 -215 -598 0
-599 215 0
-599 598 0
600 575 578 0
-600 -575 0
-600 -578 0
601 582 -600 0
-601 -582 0
-601 600 0
602 585 -601 0
-602 -585 0
-602 601 0
603 587 -602 0
-603 -587 0
-603 602 0
604 590 -603 0
-604 -590 0
-604 603 0
605 594 -604 0
-605 -594 0
-605 604 0
606 599 -605 0
-606 -599 0
-606 605 0
607 -566 -573 0
-607 566 0
-607 573 0
608 -606 -607 0
-608 606 0
-608 607 0
609 -32 -557 0
-609 32 0
-609 557 0
610 -608 -609 0
-610 608 0
-610 609 0
611 559 610 0
-611 -559 0
-611 -610 0
612 -392 607 0
-612 392 0
-612 -607 0
613 391 612 0
-613 -391 0
-613 -612 0
614 -391 -612 0
-614 391 0
-614 612 0
615 613 614 0
-615 -613 0
-615 -614 0
616 397 615 0
-616 -397 0
-616 -615 0
617 -399 607 0
-617 399 0
-617 -607 0
618 108 617 0
-618 -108 0
-618 -617 0
619 -108 -617 0
-619 108 0
-619 617 0
620 618 619 0
-620 -618 0
-620 -619 0
621 397 620 0
-621 -397 0
-621 -620 0
622 -405 607 0
-622 405 0
-622 -607 0
623 204 622 0
-623 -204 0
-623 -622 0
624 -204 -622 0
-624 204 0
-624 622 0
625 623 624 0
-625 -623 0
-625 -624 0
626 397 625 0
-626 -397 0
-626 -625 0
627 -411 607 0
-627 411 0
-627 -607 0
628 180 627 0
-628 -180 0
-628 -627 0
629 -180 -627 0
-629 180 0
-629 627 0
630 628 629 0
-630 -628 0
-630 -629 0
631 397 630 0
-631 -397 0
-631 -630 0
632 -417 607 0
-632 417 0
-632 -607 0
633 136 632 0
-633 -136 0
-633 -632 0
634 -136 -632 0
-634 136 0
-634 632 0
635 633 634 0
-635 -633 0
-635 -634 0
636 397 635 0
-636 -397 0
-636 -635 0
637 33 566 0
-637 -33 0
-637 -566 0
638 425 -637 0
-638 -425 0
-638 637 0
639 -425 637 0
-639 425 0
-639 -637 0
640 638 639 0
-640 -638 0
-640 -639 0
641 430 640 0
-641 -430 0
-641 -640 0
642 -430 -640 0
-642 430 0
-642 640 0
643 641 642 0
-643 -641 0
-643 -642 0
644 33 573 0
-644 -33 0
-644 -573 0
645 439 -644 0
-645 -439 0
-645 644 0
646 -439 644 0
-646 439 0
-646 -644 0
647 645 646 0
-647 -645 0
-647 -646 0
648 444 647 0
-648 -444 0
-648 -647 0
649 -444 -647 0
-649 444 0
-649 647 0
650 648 649 0
-650 -648 0
-650 -649 0
651 -448 607 0
-651 448 0
-651 -607 0
652 152 651 0
-652 -152 0
-652 -651 0
653 -152 -651 0
-653 152 0
-653 651 0
654 652 653 0
-654 -652 0
-654 -653 0
655 -146 654 0
-655 146 0
-655 -654 0
656 146 -654 0
-656 -146 0
-656 654 0
657 655 656 0
-657 -655 0
-657 -656 0
658 397 657 0
-658 -397 0
-658 -657 0
659 -223 464 0
-659 223 0
-659 -464 0
660 223 -464 0
-660 -223 0
-660 464 0
661 659 660 0
-661 -659 0
-661 -660 0
662 -231 470 0
-662 231 0
-662 -470 0
663 231 -470 0
-663 -231 0
-663 470 0
664 662 663 0
-664 -662 0
-664 -663 0
665 -237 475 0
-665 237 0
-665 -475 0
666 237 -475 0
-666 -237 0
-666 475 0
667 665 666 0
-667 -665 0
-667 -666 0
668 -244 481 0
-668 244 0
-668 -481 0
669 244 -481 0
-669 -244 0
-669 481 0
670 668 669 0
-670 -668 0
-670 -669 0
671 -255 487 0
-671 255 0
-671 -487 0
672 255 -487 0
-672 -255 0
-672 487 0
673 671 672 0
-673 -671 0
-673 -672 0
674 -261 492 0
-674 261 0
-674 -492 0
675 261 -492 0
-675 -261 0
-675 492 0
676 674 675 0
-676 -674 0
-676 -675 0
677 -266 497 0
-677 266 0
-677 -497 0
678 266 -497 0
-678 -266 0
-678 497 0
679 677 678 0
-679 -677 0
-679 -678 0
680 -274 504 0
-680 274 0
-680 -504 0
681 274 -504 0
-681 -274 0
-681 504 0
682 680 681 0
-682 -680 0
-682 -681 0
683 -279 509 0
-683 279 0
-683 -509 0
684 279 -509 0
-684 -279 0
-684 509 0
685 683 684 0
-685 -683 0
-685 -684 0
686 -285 515 0
-686 285 0
-686 -515 0
687 285 -515 0
-687 -285 0
-687 515 0
688 686 687 0
-688 -686 0
-688 -687 0
689 -291 521 0
-689 291 0
-689 -521 0
690 291 -521 0
-690 -291 0
-690 521 0
691 689 690 0
-691 -689 0
-691 -690 0
692 -297 527 0
-692 297 0
-692 -527 0
693 297 -527 0
-693 -297 0
-693 527 0
694 692 693 0
-694 -692 0
-694 -693 0
695 -305 535 0
-695 305 0
-695 -535 0
696 305 -535 0
-696 -305 0
-696 535 0
697 695 696 0
-697 -695 0
-697 -696 0
698 -310 540 0
-698 310 0
-698 -540 0
699 310 -540 0
-699 -310 0
-699 540 0
700 698 699 0
-700 -698 0
-700 -699 0
701 -316 546 0
-701 316 0
-701 -546 0
702 316 -546 0
-702 -316 0
-702 546 0
703 701 702 0
-703 -701 0
-703 -702 0
704 -322 552 0
-704 322 0
-704 -552 0
705 322 -552 0
-705 -322 0
-705 552 0
706 704 705 0
-706 -704 0
-706 -705 0
707 388 -611 0
-707 -388 0
-707 611 0
708 -388 611 0
-708 388 0
-708 -611 0
709 707 708 0
-709 -707 0
-709 -708 0
710 398 -616 0
-710 -398 0
-710 616 0
711 -398 616 0
-711 398 0
-711 -616 0
712 710 711 0
-712 -710 0
-712 -711 0
713 404 -621 0
-713 -404 0
-713 621 0
714 -404 621 0
-714 404 0
-714 -621 0
715 713 714 0
-715 -713 0
-715 -714 0
716 410 -626 0
-716 -410 0
-716 626 0
717 -410 626 0
-717 410 0
-717 -626 0
718 716 717 0
-718 -716 0
-718 -717 0
719 416 -631 0
-719 -416 0
-719 631 0
720 -416 631 0
-720 416 0
-720 -631 0
721 719 720 0
-721 -719 0
-721 -720 0
722 422 -636 0
-722 -422 0
-722 636 0
723 -422 636 0
-723 422 0
-723 -636 0
724 722 723 0
-724 -722 0
-724 -723 0
725 -433 643 0
-725 433 0
-725 -643 0
726 433 -643 0
-726 -433 0
-726 643 0
727 725 726 0
-727 -725 0
-727 -726 0
728 -447 650 0
-728 447 0
-728 -650 0
729 447 -650 0
-729 -447 0
-729 650 0
730 728 729 0
-730 -728 0
-730 -729 0
731 456 -658 0
-731 -456 0
-731 658 0
732 -456 658 0
-732 456 0
-732 -658 0
733 731 732 0
-733 -731 0
-733 -732 0
734 -664 -667 0
-734 664 0
-734 667 0
735 -661 -734 0
-735 661 0
-735 734 0
736 -673 -676 0
-736 673 0
-736 676 0
737 -670 -736 0
-737 670 0
-737 736 0
738 -735 -737 0
-738 735 0
-738 737 0
739 -682 -685 0
-739 682 0
-739 685 0
740 -679 -739 0
-740 679 0
-740 739 0
741 -691 -694 0
-741 691 0
-741 694 0
742 -688 -741 0
-742 688 0
-742 741 0
743 -740 -742 0
-743 740 0
-743 742 0
744 -738 -743 0
-744 738 0
-744 743 0
745 -700 -703 0
-745 700 0
-745 703 0
746 -697 -745 0
-746 697 0
-746 745 0
747 -709 -712 0
-747 709 0
-747 712 0
748 -706 -747 0
-748 706 0
-748 747 0
749 -746 -748 0
-749 746 0
-749 748 0
750 -718 -721 0
-750 718 0
-750 721 0
751 -715 -750 0
-751 715 0
-751 750 0
752 -724 -727 0
-752 724 0
-752 727 0
753 -730 -733 0
-753 730 0
-753 733 0
754 -752 -753 0
-754 752 0
-754 753 0
755 -751 -754 0
-755 751 0
-755 754 0
756 -749 -755 0
-756 749 0
-756 755 0
757 -744 -756 0
-757 744 0
-757 756 0
36 757 0
-36 -757 0
36 0
w 1 0.500000
w 2 0.500000
w 3 0.500000
w 4 0.500000
w 5 0.500000
w 6 0.500000
w 7 0.500000
w 8 0.500000
w 9 0.500000
w 10 0.500000
w 11 0.500000
w 12 0.500000
w 13 0.500000
w 14 0.500000
w 15 0.500000
w 16 0.500000
w 17 0.500000
w 18 0.500000
w 19 0.500000
w 20 0.500000
w 21 0.500000
w 22 0.500000
w 23 0.500000
w 24 0.500000
w 25 0.500000
w 26 0.500000
w 27 0.500000
w 28 0.500000
w 29 0.500000
w 30 0.500000
w 31 0.500000
w 32 0.500000
w 33 0.500000
w 34 0.125000
w 35 0.125000
w 37 -1
w 38 -1
w 39 -1
w 40 -1
w 41 -1
w 42 -1
w 43 -1
w 44 -1
w 45 -1
w 46 -1
w 47 -1
w 48 -1
w 49 -1
w 50 -1
w 51 -1
w 52 -1
w 53 -1
w 54 -1
w 55 -1
w 56 -1
w 57 -1
w 58 -1
w 59 -1
w 60 -1
w 61 -1
w 62 -1
w 63 -1
w 64 -1
w 65 -1
w 66 -1
w 67 -1
w 68 -1
w 69 -1
w 70 -1
w 71 -1
w 72 -1
w 73 -1
w 74 -1
w 75 -1
w 76 -1
w 77 -1
w 78 -1
w 79 -1
w 80 -1
w 81 -1
w 82 -1
w 83 -1
w 84 -1
w 85 -1
w 86 -1
w 87 -1
w 88 -1
w 89 -1
w 90 -1
w 91 -1
w 92 -1
w 93 -1
w 94 -1
w 95 -1
w 96 -1
w 97 -1
w 98 -1
w 99 -1
w 100 -1
w 101 -1
w 102 -1
w 103 -1
w 104 -1
w 105 -1
w 106 -1
w 107 -1
w 108 -1
w 109 -1
w 110 -1
w 111 -1
w 112 -1
w 113 -1
w 114 -1
w 115 -1
w 116 -1
w 117 -1
w 118 -1
w 119 -1
w 120 -1
w 121 -1
w 122 -1
w 123 -1
w 124 -1
w 125 -1
w 126 -1
w 127 -1
w 128 -1
w 129 -1
w 130 -1
w 131 -1
w 132 -1
w 133 -1
w 134 -1
w 135 -1
w 136 -1
w 137 -1
w 138 -1
w 139 -1
w 140 -1
w 141 -1
w 142 -1
w 143 -1
w 144 -1
w 145 -1
w 146 -1
w 147 -1
w 148 -1
w 149 -1
w 150 -1
w 151 -1
w 152 -1
w 153 -1
w 154 -1
w 155 -1
w 156 -1
w 157 -1
w 158 -1
w 159 -1
w 160 -1
w 161 -1
w 162 -1
w 163 -1
w 164 -1
w 165 -1
w 166 -1
w 167 -1
w 168 -1
w 169 -1
w 170 -1
w 171 -1
w 172 -1
w 173 -1
w 174 -1
w 175 -1
w 176 -1
w 177 -1
w 178 -1
w 179 -1
w 180 -1
w 181 -1
w 182 -1
w 183 -1
w 184 -1
w 185 -1
w 186 -1
w 187 -1
w 188 -1
w 189 -1
w 190 -1
w 191 -1
w 192 -1
w 193 -1
w 194 -1
w 195 -1
w 196 -1
w 197 -1
w 198 -1
w 199 -1
w 200 -1
w 201 -1
w 202 -1
w 203 -1
w 204 -1
w 205 -1
w 206 -1
w 207 -1
w 208 -1
w 209 -1
w 210 -1
w 211 -1
w 212 -1
w 213 -1
w 214 -1
w 215 -1
w 216 -1
w 217 -1
w 218 -1
w 219 -1
w 220 -1
w 221 -1
w 222 -1
w 223 -1
w 224 -1
w 225 -1
w 226 -1
w 227 -1
w 228 -1
w 229 -1
w 230 -1
w 231 -1
w 232 -1
w 233 -1
w 234 -1
w 235 -1
w 236 -1
w 237 -1
w 238 -1
w 239 -1
w 240 -1
w 241 -1
w 242 -1
w 243 -1
w 244 -1
w 245 -1
w 246 -1
w 247 -1
w 248 -1
w 249 -1
w 250 -1
w 251 -1
w 252 -1
w 253 -1
w 254 -1
w 255 -1
w 256 -1
w 257 -1
w 258 -1
w 259 -1
w 260 -1
w 261 -1
w 262 -1
w 263 -1
w 264 -1
w 265 -1
w 266 -1
w 267 -1
w 268 -1
w 269 -1
w 270 -1
w 271 -1
w 272 -1
w 273 -1
w 274 -1
w 275 -1
w 276 -1
w 277 -1
w 278 -1
w 279 -1
w 280 -1
w 281 -1
w 282 -1
w 283 -1
w 284 -1
w 285 -1
w 286 -1
w 287 -1
w 288 -1
w 289 -1
w 290 -1
w 291 -1
w 292 -1
w 293 -1
w 294 -1
w 295 -1
w 296 -1
w 297 -1
w 298 -1
w 299 -1
w 300 -1
w 301 -1
w 302 -1
w 303 -1
w 304 -1
w 305 -1
w 306 -1
w 307 -1
w 308 -1
w 309 -1
w 310 -1
w 311 -1
w 312 -1
w 313 -1
w 314 -1
w 315 -1
w 316 -1
w 317 -1
w 318 -1
w 319 -1
w 320 -1
w 321 -1
w 322 -1
w 323 -1
w 324 -1
w 325 -1
w 326 -1
w 327 -1
w 328 -1
w 329 -1
w 330 -1
w 331 -1
w 332 -1
w 333 -1
w 334 -1
w 335 -1
w 336 -1
w 337 -1
w 338 -1
w 339 -1
w 340 -1
w 341 -1
w 342 -1
w 343 -1
w 344 -1
w 345 -1
w 346 -1
w 347 -1
w 348 -1
w 349 -1
w 350 -1
w 351 -1
w 352 -1
w 353 -1
w 354 -1
w 355 -1
w 356 -1
w 357 -1
w 358 -1
w 359 -1
w 360 -1
w 361 -1
w 362 -1
w 363 -1
w 364 -1
w 365 -1
w 366 -1
w 367 -1
w 368 -1
w 369 -1
w 370 -1
w 371 -1
w 372 -1
w 373 -1
w 374 -1
w 375 -1
w 376 -1
w 377 -1
w 378 -1
w 379 -1
w 380 -1
w 381 -1
w 382 -1
w 383 -1
w 384 -1
w 385 -1
w 386 -1
w 387 -1
w 388 -1
w 389 -1
w 390 -1
w 391 -1
w 392 -1
w 393 -1
w 394 -1
w 395 -1
w 396 -1
w 397 -1
w 398 -1
w 399 -1
w 400 -1
w 401 -1
w 402 -1
w 403 -1
w 404 -1
w 405 -1
w 406 -1
w 407 -1
w 408 -1
w 409 -1
w 410 -1
w 411 -1
w 412 -1
w 413 -1
w 414 -1
w 415 -1
w 416 -1
w 417 -1
w 418 -1
w 419 -1
w 420 -1
w 421 -1
w 422 -1
w 423 -1
w 424 -1
w 425 -1
w 426 -1
w 427 -1
w 428 -1
w 429 -1
w 430 -1
w 431 -1
w 432 -1
w 433 -1
w 434 -1
w 435 -1
w 436 -1
w 437 -1
w 438 -1
w 439 -1
w 440 -1
w 441 -1
w 442 -1
w 443 -1
w 444 -1
w 445 -1
w 446 -1
w 447 -1
w 448 -1
w 449 -1
w 450 -1
w 451 -1
w 452 -1
w 453 -1
w 454 -1
w 455 -1
w 456 -1
w 457 -1
w 458 -1
w 459 -1
w 460 -1
w 461 -1
w 462 -1
w 463 -1
w 464 -1
w 465 -1
w 466 -1
w 467 -1
w 468 -1
w 469 -1
w 470 -1
w 471 -1
w 472 -1
w 473 -1
w 474 -1
w 475 -1
w 476 -1
w 477 -1
w 478 -1
w 479 -1
w 480 -1
w 481 -1
w 482 -1
w 483 -1
w 484 -1
w 485 -1
w 486 -1
w 487 -1
w 488 -1
w 489 -1
w 490 -1
w 491 -1
w 492 -1
w 493 -1
w 494 -1
w 495 -1
w 496 -1
w 497 -1
w 498 -1
w 499 -1
w 500 -1
w 501 -1
w 502 -1
w 503 -1
w 504 -1
w 505 -1
w 506 -1
w 507 -1
w 508 -1
w 509 -1
w 510 -1
w 511 -1
w 512 -1
w 513 -1
w 514 -1
w 515 -1
w 516 -1
w 517 -1
w 518 -1
w 519 -1
w 520 -1
w 521 -1
w 522 -1
w 523 -1
w 524 -1
w 525 -1
w 526 -1
w 527 -1
w 528 -1
w 529 -1
w 530 -1
w 531 -1
w 532 -1
w 533 -1
w 534 -1
w 535 -1
w 536 -1
w 537 -1
w 538 -1
w 539 -1
w 540 -1
w 541 -1
w 542 -1
w 543 -1
w 544 -1
w 545 -1
w 546 -1
w 547 -1
w 548 -1
w 549 -1
w 550 -1
w 551 -1
w 552 -1
w 553 -1
w 554 -1
w 555 -1
w 556 -1
w 557 -1
w 558 -1
w 559 -1
w 560 -1
w 561 -1
w 562 -1
w 563 -1
w 564 -1
w 565 -1
w 566 -1
w 567 -1
w 568 -1
w 569 -1
w 570 -1
w 571 -1
w 572 -1
w 573 -1
w 574 -1
w 575 -1
w 576 -1
w 577 -1
w 578 -1
w 579 -1
w 580 -1
w 581 -1
w 582 -1
w 583 -1
w 584 -1
w 585 -1
w 586 -1
w 587 -1
w 588 -1
w 589 -1
w 590 -1
w 591 -1
w 592 -1
w 593 -1
w 594 -1
w 595 -1
w 596 -1
w 597 -1
w 598 -1
w 599 -1
w 600 -1
w 601 -1
w 602 -1
w 603 -1
w 604 -1
w 605 -1
w 606 -1
w 607 -1
w 608 -1
w 609 -1
w 610 -1
w 611 -1
w 612 -1
w 613 -1
w 614 -1
w 615 -1
w 616 -1
w 617 -1
w 618 -1
w 619 -1
w 620 -1
w 621 -1
w 622 -1
w 623 -1
w 624 -1
w 625 -1
w 626 -1
w 627 -1
w 628 -1
w 629 -1
w 630 -1
w 631 -1
w 632 -1
w 633 -1
w 634 -1
w 635 -1
w 636 -1
w 637 -1
w 638 -1
w 639 -1
w 640 -1
w 641 -1
w 642 -1
w 643 -1
w 644 -1
w 645 -1
w 646 -1
w 647 -1
w 648 -1
w 649 -1
w 650 -1
w 651 -1
w 652 -1
w 653 -1
w 654 -1
w 655 -1
w 656 -1
w 657 -1
w 658 -1
w 659 -1
w 660 -1
w 661 -1
w 662 -1
w 663 -1
w 664 -1
w 665 -1
w 666 -1
w 667 -1
w 668 -1
w 669 -1
w 670 -1
w 671 -1
w 672 -1
w 673 -1
w 674 -1
w 675 -1
w 676 -1
w 677 -1
w 678 -1
w 679 -1
w 680 -1
w 681 -1
w 682 -1
w 683 -1
w 684 -1
w 685 -1
w 686 -1
w 687 -1
w 688 -1
w 689 -1
w 690 -1
w 691 -1
w 692 -1
w 693 -1
w 694 -1
w 695 -1
w 696 -1
w 697 -1
w 698 -1
w 699 -1
w 700 -1
w 701 -1
w 702 -1
w 703 -1
w 704 -1
w 705 -1
w 706 -1
w 707 -1
w 708 -1
w 709 -1
w 710 -1
w 711 -1
w 712 -1
w 713 -1
w 714 -1
w 715 -1
w 716 -1
w 717 -1
w 718 -1
w 719 -1
w 720 -1
w 721 -1
w 722 -1
w 723 -1
w 724 -1
w 725 -1
w 726 -1
w 727 -1
w 728 -1
w 729 -1
w 730 -1
w 731 -1
w 732 -1
w 733 -1
w 734 -1
w 735 -1
w 736 -1
w 737 -1
w 738 -1
w 739 -1
w 740 -1
w 741 -1
w 742 -1
w 743 -1
w 744 -1
w 745 -1
w 746 -1
w 747 -1
w 748 -1
w 749 -1
w 750 -1
w 751 -1
w 752 -1
w 753 -1
w 754 -1
w 755 -1
w 756 -1
w 757 -1
w 36 -1
